<?xml version = "1.0" encoding="UTF-8" standalone="yes"?>
<CPLEXSolution version="1.2">
 <header
   problemName=""
   objectiveValue="5"
   solutionTypeValue="1"
   solutionTypeString="basic"
   solutionStatusValue="1"
   solutionStatusString="optimal"
   solutionMethodString="dual"
   primalFeasible="1"
   dualFeasible="1"
   simplexIterations="2"
   writeLevel="1"/>
 <quality
   epRHS="9.9999999999999995e-07"
   epOpt="9.9999999999999995e-07"
   maxPrimalInfeas="0"
   maxDualInfeas="0"
   maxPrimalResidual="2.2870594307278225e-14"
   maxDualResidual="0"
   maxX="3.0000000000000013"
   maxPi="1"
   maxSlack="59.250000000000021"
   maxRedCost="0"
   kappa="104080.76127049181"/>
 <linearConstraints>
  <constraint name="R0" index="0" status="BS" slack="-0.74999999999999911" dual="-0"/>
  <constraint name="R4" index="1" status="BS" slack="-3.4999999999999982" dual="-0"/>
  <constraint name="R35" index="2" status="BS" slack="-0.75000000000000178" dual="-0"/>
  <constraint name="C297" index="3" status="BS" slack="-3.9999999999999982" dual="-0"/>
  <constraint name="C298" index="4" status="BS" slack="-2.9999999999999982" dual="-0"/>
  <constraint name="C299" index="5" status="BS" slack="-2.0000000000000018" dual="-0"/>
  <constraint name="C300" index="6" status="BS" slack="-2.0000000000000013" dual="-0"/>
  <constraint name="C301" index="7" status="BS" slack="-1.0000000000000013" dual="-0"/>
  <constraint name="C302" index="8" status="BS" slack="-0.99999999999999911" dual="-0"/>
  <constraint name="C303" index="9" status="BS" slack="-1.0000000000000011" dual="-0"/>
  <constraint name="C304" index="10" status="LL" slack="0" dual="1"/>
  <constraint name="C5" index="11" status="LL" slack="0" dual="0"/>
  <constraint name="C5" index="12" status="BS" slack="-59.249999999999986" dual="-0"/>
  <constraint name="C5" index="13" status="BS" slack="-12.749999999999993" dual="-0"/>
  <constraint name="C5" index="14" status="BS" slack="-59.250000000000021" dual="-0"/>
  <constraint name="C5" index="15" status="BS" slack="-12.750000000000005" dual="-0"/>
  <constraint name="C5" index="16" status="LL" slack="0" dual="0"/>
 </linearConstraints>
 <variables>
  <variable name="x0" index="0" status="BS" value="0.25000000000000022" reducedCost="0"/>
  <variable name="x1" index="1" status="LL" value="0" reducedCost="0"/>
  <variable name="x11" index="2" status="BS" value="1.7499999999999984" reducedCost="0"/>
  <variable name="x46" index="3" status="BS" value="3.0000000000000013" reducedCost="0"/>
  <variable name="x121" index="4" status="LL" value="0" reducedCost="0"/>
  <variable name="x251" index="5" status="LL" value="0" reducedCost="0"/>
 </variables>
 <objectiveValues>
  <objective index="0" name="" value="5"/>
 </objectiveValues>
</CPLEXSolution>
